&CONTROL
calculation = 'scf'
pseudo_dir = '.'
/

&SYSTEM
A = 5.178
ibrav = 5
nat =10
ntyp = 2
ecutwfc = 50
noncolin = .true
lspinorb = .true
/

&ELECTRONS
/

ATOMIC_SPECIES
Al 26.981539 al_lda_v1.uspp.F.UPF
O 15.999 o_lda_v1.2.uspp.F.UPF
ATOMIC_POSITIONS {crystal}
Al 0.1479	0.1479	0.1479
Al 0.3521	0.3521	0.3521
Al 0.6479	0.6479	0.6479
Al 0.8521	0.8521	0.8521
O .0561	0.75	0.4439
O 0.25	0.5561	0.9439
O 0.4439	0.0561	0.75
O 0.5561	0.9439	0.25
O 0.75	0.4439	0.0561
O 0.9439	0.25	0.5561
K_POINTS {automatic}
4 4 4 0 0 0



